50
300 300
1 209 664
2 202 354
3 202 979
4 199 576
5 196 459
6 191 720
7 190 808
8 185 730
9 184 52
10 178 31
11 171 330
12 166 537
13 157 712
14 155 635
15 153 614
16 142 763
17 138 417
18 134 649
19 134 650
20 132 530
21 131 1
22 131 630
23 131 338
24 126 45
25 125 225
26 119 931
27 119 870
28 119 737
29 112 851
30 109 555
31 104 938
32 102 561
33 101 232
34 100 573
35 100 214
36 99 611
37 96 743
38 96 366
39 93 994
40 86 707
41 85 713
42 84 318
43 82 458
44 80 419
45 72 937
46 70 535
47 67 594
48 66 946
49 65 739
50 62 260
